50
15833

280 734
169 270
444 768
611 759
506 273
588 713
389 330
205 615
723 865
904 349
74 190
809 591
746 726
399 621
971 37
624 643
159 216
466 438
309 115
248 973
454 591
452 635
39 14
500 22
754 91
562 672
287 661
5 793
212 712
604 286
634 949
442 74
599 551
738 698
821 166
858 774
568 683
415 336
441 990
335 585
187 361
158 48
336 993
982 226
788 321
747 740
979 248
160 899
576 545
625 839
